4887
4999
4989
4891
4935
4886
4947
4955
4978
4932
4938
4967
4894
4863
4879
5008
4915
4922
4945
4972
4920
4928
4963
4917
4903
5022
4952
4953
4940
4808
4861
4918
4920
4875
4899
4927
4924
4907
4993
4962
4986
4991
5023
4981
4923
4977
4934
4911
4878
4987
4893
5003
4924
4903
4944
5001
5007
4926
4974
4878
4968
4950
4899
4898
4953
4943
4963
4903
4929
4965
4958
4963
4991
4923
5047
4919
4997
4973
4927
4972
4973
4921
4898
5001
4937
4913
4924
4882
4980
4956
4984
5013
4906
4978
4993
4973
4851
4891
4992
4893
